c Reduced graph for GEOM40 generated by Cyril Grelier
p edge 19 40
e 1 10
e 1 11
e 1 13
e 1 14
e 1 15
e 2 9
e 2 12
e 2 16
e 3 6
e 3 7
e 4 5
e 4 8
e 4 17
e 4 18
e 4 19
e 5 8
e 5 17
e 5 18
e 5 19
e 6 7
e 8 17
e 8 18
e 8 19
e 9 10
e 9 12
e 9 16
e 10 12
e 10 15
e 11 13
e 11 14
e 11 15
e 12 16
e 13 14
e 13 15
e 13 16
e 14 15
e 15 16
e 17 18
e 17 19
e 18 19
